Gurobi Optimizer version 9.1.0 build v9.1.0rc0 (linux64)
Thread count: 8 physical cores, 16 logical processors, using up to 16 threads
Optimize a model with 415466 rows, 400800 columns and 2301950 nonzeros
Model fingerprint: 0x17ff7416
Variable types: 0 continuous, 400800 integer (400800 binary)
Coefficient statistics:
  Matrix range     [1e+00, 1e+00]
  Objective range  [1e+01, 1e+05]
  Bounds range     [1e+00, 1e+00]
  RHS range        [1e+00, 1e+03]
Presolve removed 6050 rows and 50 columns (presolve time = 7s) ...
Presolve removed 6050 rows and 50 columns (presolve time = 10s) ...
Presolve added 0 rows and 5950 columns
Presolve removed 50 rows and 0 columns
Presolve time: 10.03s
Presolved: 415416 rows, 406750 columns, 1719850 nonzeros
Variable types: 0 continuous, 406750 integer (406750 binary)
Found heuristic solution: objective 2021406.0000

Concurrent LP optimizer: primal simplex, dual simplex, and barrier
Showing barrier log only...

Root barrier log...

Ordering time: 0.14s

Barrier statistics:
 Dense cols : 400
 AA' NZ     : 1.332e+06
 Factor NZ  : 5.533e+06 (roughly 400 MBytes of memory)
 Factor Ops : 1.335e+09 (less than 1 second per iteration)
 Threads    : 6

                  Objective                Residual
Iter       Primal          Dual         Primal    Dual     Compl     Time
   0   6.20757193e+08 -7.65733193e+08  7.11e+02 2.86e+01  3.25e+04    18s
   1   4.63335405e+06 -9.93282374e+08  1.84e+01 2.32e+04  1.13e+03    18s
   2   2.72568782e+06 -6.47535750e+08  4.79e+00 1.37e+04  6.04e+02    19s
   3   2.49425878e+06 -2.76587431e+08  3.14e+00 5.39e+03  2.55e+02    20s
   4   2.43917341e+06 -1.34829562e+08  2.75e+00 2.48e+03  1.27e+02    21s
   5   2.19035007e+06 -1.14421599e+08  9.30e-01 2.08e+03  1.01e+02    22s
   6   2.05787683e+06 -1.32974411e+07  6.88e-02 2.46e+02  1.29e+01    23s
   7   2.03088025e+06 -1.51502991e+06  3.71e-02 4.90e+01  2.95e+00    23s
   8   1.99696630e+06 -5.90031288e+05  2.65e-02 3.56e+01  2.15e+00    24s
   9   1.98464352e+06  8.44148021e+05  2.35e-02 1.20e+01  9.46e-01    25s
  10   1.96706682e+06  8.84995338e+05  2.02e-02 1.15e+01  8.97e-01    26s
  11   1.95255240e+06  1.30462617e+06  1.82e-02 6.14e+00  5.36e-01    26s
  12   1.93372875e+06  1.48284193e+06  1.56e-02 3.84e+00  3.72e-01    28s
  13   1.92210974e+06  1.55596673e+06  1.44e-02 2.83e+00  3.02e-01    29s
  14   1.89977970e+06  1.63288656e+06  1.19e-02 1.83e+00  2.19e-01    30s
  15   1.88466876e+06  1.66763705e+06  1.05e-02 1.38e+00  1.78e-01    31s
  16   1.87688409e+06  1.69893397e+06  9.70e-03 9.88e-01  1.46e-01    32s
  17   1.86562901e+06  1.71084094e+06  8.65e-03 8.18e-01  1.27e-01    33s
  18   1.85086203e+06  1.72660872e+06  7.38e-03 5.93e-01  1.02e-01    34s
  19   1.83756593e+06  1.73396524e+06  6.19e-03 4.89e-01  8.48e-02    35s
  20   1.82847487e+06  1.74226540e+06  5.36e-03 3.74e-01  7.05e-02    37s
  21   1.82014764e+06  1.74623462e+06  4.64e-03 3.17e-01  6.04e-02    37s
  22   1.81339628e+06  1.75054193e+06  4.04e-03 2.58e-01  5.14e-02    38s
  23   1.80667699e+06  1.75454172e+06  3.43e-03 2.02e-01  4.26e-02    39s
  24   1.80210402e+06  1.75673422e+06  3.03e-03 1.72e-01  3.71e-02    40s
  25   1.79848221e+06  1.75811962e+06  2.69e-03 1.54e-01  3.30e-02    41s
  26   1.79561702e+06  1.75988630e+06  2.43e-03 1.30e-01  2.92e-02    42s
  27   1.79473270e+06  1.76049596e+06  2.35e-03 1.22e-01  2.79e-02    43s
  28   1.79022324e+06  1.76156298e+06  1.93e-03 1.09e-01  2.34e-02    44s
  29   1.78789834e+06  1.76298914e+06  1.71e-03 9.00e-02  2.03e-02    45s
  30   1.78515173e+06  1.76370597e+06  1.45e-03 8.09e-02  1.75e-02    46s
  31   1.78365104e+06  1.76455454e+06  1.30e-03 7.10e-02  1.56e-02    47s
  32   1.78221115e+06  1.76536687e+06  1.16e-03 6.04e-02  1.37e-02    47s
  33   1.78008994e+06  1.76575857e+06  9.56e-04 5.55e-02  1.17e-02    48s
  34   1.77865222e+06  1.76624298e+06  8.16e-04 4.96e-02  1.01e-02    49s
  35   1.77825716e+06  1.76660610e+06  7.77e-04 4.51e-02  9.52e-03    50s
  36   1.77776180e+06  1.76690230e+06  7.28e-04 4.16e-02  8.87e-03    51s
  37   1.77676509e+06  1.76717352e+06  6.30e-04 3.83e-02  7.84e-03    52s
  38   1.77629033e+06  1.76751716e+06  5.83e-04 3.43e-02  7.17e-03    53s
  39   1.77574517e+06  1.76764618e+06  5.30e-04 3.28e-02  6.62e-03    54s
  40   1.77528644e+06  1.76792177e+06  4.85e-04 2.95e-02  6.02e-03    54s
  41   1.77497487e+06  1.76814942e+06  4.57e-04 2.68e-02  5.57e-03    55s
  42   1.77471891e+06  1.76843254e+06  4.32e-04 2.34e-02  5.13e-03    56s
  43   1.77419072e+06  1.76850700e+06  3.81e-04 2.25e-02  4.64e-03    57s
  44   1.77403752e+06  1.76863435e+06  3.66e-04 2.09e-02  4.41e-03    58s
  45   1.77397778e+06  1.76868420e+06  3.60e-04 2.03e-02  4.32e-03    58s
  46   1.77350739e+06  1.76874237e+06  3.13e-04 1.95e-02  3.89e-03    59s
  47   1.77334344e+06  1.76899083e+06  2.98e-04 1.66e-02  3.55e-03    60s
  48   1.77306531e+06  1.76911034e+06  2.71e-04 1.51e-02  3.23e-03    61s
  49   1.77289713e+06  1.76925129e+06  2.55e-04 1.33e-02  2.98e-03    62s
  50   1.77269267e+06  1.76933021e+06  2.36e-04 1.23e-02  2.74e-03    63s
  51   1.77257985e+06  1.76948466e+06  2.25e-04 1.03e-02  2.52e-03    64s
  52   1.77243084e+06  1.76955617e+06  2.11e-04 9.45e-03  2.34e-03    64s
  53   1.77226698e+06  1.76961435e+06  1.95e-04 8.71e-03  2.16e-03    65s
  54   1.77206252e+06  1.76965439e+06  1.76e-04 8.19e-03  1.96e-03    66s
  55   1.77195708e+06  1.76973604e+06  1.65e-04 7.16e-03  1.81e-03    67s
  56   1.77188360e+06  1.76975312e+06  1.58e-04 6.93e-03  1.74e-03    68s
  57   1.77169966e+06  1.76981355e+06  1.41e-04 6.18e-03  1.54e-03    69s
  58   1.77155946e+06  1.76985958e+06  1.27e-04 5.61e-03  1.39e-03    69s
  59   1.77147277e+06  1.76991343e+06  1.19e-04 4.93e-03  1.27e-03    70s
  60   1.77140029e+06  1.76992062e+06  1.12e-04 4.83e-03  1.21e-03    71s
  61   1.77133997e+06  1.76997055e+06  1.06e-04 4.19e-03  1.12e-03    72s
  62   1.77128518e+06  1.76999160e+06  1.00e-04 3.92e-03  1.05e-03    73s
  63   1.77118791e+06  1.77001291e+06  9.10e-05 3.64e-03  9.58e-04    74s
  64   1.77116123e+06  1.77002444e+06  8.84e-05 3.49e-03  9.26e-04    74s
  65   1.77108488e+06  1.77004803e+06  8.07e-05 3.17e-03  8.45e-04    75s
  66   1.77096110e+06  1.77006935e+06  6.86e-05 2.87e-03  7.27e-04    76s
  67   1.77091984e+06  1.77008976e+06  6.44e-05 2.60e-03  6.77e-04    77s
  68   1.77088786e+06  1.77009844e+06  6.11e-05 2.49e-03  6.43e-04    78s
  69   1.77077468e+06  1.77012256e+06  4.97e-05 2.17e-03  5.32e-04    79s
  70   1.77071510e+06  1.77014636e+06  4.36e-05 1.87e-03  4.64e-04    79s
  71   1.77069874e+06  1.77015891e+06  4.19e-05 1.71e-03  4.40e-04    80s
  72   1.77060729e+06  1.77017640e+06  3.25e-05 1.48e-03  3.51e-04    81s
  73   1.77057619e+06  1.77018743e+06  2.93e-05 1.33e-03  3.17e-04    82s
  74   1.77055998e+06  1.77019685e+06  2.76e-05 1.21e-03  2.96e-04    83s
  75   1.77051736e+06  1.77020303e+06  2.32e-05 1.13e-03  2.56e-04    84s
  76   1.77050482e+06  1.77021340e+06  2.19e-05 9.94e-04  2.38e-04    84s
  77   1.77047748e+06  1.77022484e+06  1.90e-05 8.46e-04  2.06e-04    85s
  78   1.77044886e+06  1.77023856e+06  1.61e-05 6.71e-04  1.71e-04    86s
  79   1.77042493e+06  1.77024333e+06  1.36e-05 6.11e-04  1.48e-04    87s
  80   1.77041897e+06  1.77025216e+06  1.30e-05 5.04e-04  1.36e-04    88s
  81   1.77040320e+06  1.77025931e+06  1.14e-05 4.13e-04  1.17e-04    89s
  82   1.77036943e+06  1.77026507e+06  7.80e-06 3.45e-04  8.51e-05    89s
  83   1.77035641e+06  1.77027350e+06  6.43e-06 2.38e-04  6.75e-05    90s
  84   1.77034181e+06  1.77027771e+06  4.96e-06 1.86e-04  5.22e-05    91s
  85   1.77032781e+06  1.77028117e+06  3.49e-06 1.43e-04  3.80e-05    92s
  86   1.77031939e+06  1.77028733e+06  2.63e-06 7.29e-05  2.61e-05    93s
  87   1.77030502e+06  1.77029107e+06  1.15e-06 2.80e-05  1.13e-05    94s
  88   1.77029889e+06  1.77029253e+06  5.22e-07 1.13e-05  5.17e-06    94s
  89   1.77029475e+06  1.77029351e+06  1.01e-07 4.74e-08  1.01e-06    95s
  90   1.77029370e+06  1.77029366e+06  2.75e-09 3.38e-07  2.95e-08    96s
  91   1.77029370e+06  1.77029366e+06  2.95e-09 3.36e-07  2.94e-08    96s
  92   1.77029370e+06  1.77029366e+06  1.16e-08 3.37e-07  2.94e-08    97s
  93   1.77029370e+06  1.77029366e+06  1.07e-08 3.37e-07  2.94e-08    98s

Barrier solved model in 93 iterations and 98.23 seconds
Optimal objective 1.77029370e+06


Root crossover log...

  208092 DPushes remaining with DInf 4.9498992e-04                99s
       0 DPushes remaining with DInf 0.0000000e+00               100s

    1748 PPushes remaining with PInf 3.3779542e-05               100s
       0 PPushes remaining with PInf 0.0000000e+00               100s

  Push phase complete: Pinf 0.0000000e+00, Dinf 1.1510681e-09    100s


Root simplex log...

Iteration    Objective       Primal Inf.    Dual Inf.      Time
   30447    1.7702937e+06   0.000000e+00   0.000000e+00    100s
   30447    1.7702937e+06   0.000000e+00   0.000000e+00    101s

Solved with barrier

Root relaxation: objective 1.770294e+06, 30447 iterations, 86.47 seconds
Total elapsed time = 106.15s

    Nodes    |    Current Node    |     Objective Bounds      |     Work
 Expl Unexpl |  Obj  Depth IntInf | Incumbent    BestBd   Gap | It/Node Time

     0     0 1770293.67    0 10479 2021406.00 1770293.67  12.4%     -  107s
H    0     0                    1862083.0000 1770293.67  4.93%     -  122s
     0     0 1770304.52    0 11467 1862083.00 1770304.52  4.93%     -  147s
H    0     0                    1770751.0000 1770304.52  0.03%     -  231s
     0     0 1770310.25    0 11440 1770751.00 1770310.25  0.02%     -  237s
     0     0 1770330.71    0 11519 1770751.00 1770330.71  0.02%     -  254s
     0     0 1770330.71    0 9048 1770751.00 1770330.71  0.02%     -  270s
     0     0 1770342.19    0 9685 1770751.00 1770342.19  0.02%     -  280s
     0     0 1770344.50    0 9679 1770751.00 1770344.50  0.02%     -  282s
     0     0 1770356.31    0 10087 1770751.00 1770356.31  0.02%     -  290s
H    0     0                    1770725.0000 1770356.31  0.02%     -  290s
     0     0 1770356.63    0 10048 1770725.00 1770356.63  0.02%     -  292s
     0     0 1770356.63    0 10039 1770725.00 1770356.63  0.02%     -  293s
H    0     0                    1770655.0000 1770356.63  0.02%     -  300s

Cutting planes:
  Gomory: 4
  Clique: 3
  Zero half: 180
  RLT: 5

Explored 1 nodes (48545 simplex iterations) in 301.12 seconds
Thread count was 16 (of 16 available processors)

Solution count 6: 1.77066e+06 1.77072e+06 1.77075e+06 ... 2.02141e+06

Time limit reached
Best objective 1.770655000000e+06, best bound 1.770552050000e+06, gap 0.0058%

User-callback calls 37804, time in user-callback 0.48 sec
['/opt/local/stow/gurobi910/linux64/lib/libgurobi91.so']
Result: runtime=293.82sec; objective=1770655
Solution written to /autofs/unityaccount/cremi/mdeboute/Bureau/multi-period-flp/solution/instMulti_I50_J1000_T8_1_result.txt
